\ Model Keypath_Formulation
\ LP format - for model browsing. Use MPS format to capture full model detail.
\ Signature: 0x43462a7cd9338ab8
Minimize
  25.81 t[0,1] + 23.66 t[0,4] + 15.04 t[0,7] + 41.85 t[1,10] + 48.26 t[2,11]
   + 46.24 t[2,9] + 38 t[2,3] + 36.03 t[3,6] + 39.35 t[3,7] + 30.52 t[3,9]
   + 32.7 t[3,10] + 38.4 t[3,12] + 45.06 t[4,11] + 23.4 t[4,3]
   + 22.09 t[4,7] + 37.31 t[5,8] + 37.27 t[5,13] + 35.72 t[5,6]
   + 41.62 t[6,9] + 33.45 t[6,2] + 25.63 t[6,7] + 32.87 t[7,9]
   + 54.75 t[10,0] + 42.89 t[10,9] + 52.94 t[10,13] + 25.86 t[11,9]
   + 36.27 t[12,4] + 24 t[12,5] + 27.6 t[12,6] + 61.9 t[13,4]
   + 55.75 t[14,1] + 56 t[14,5] + 56.64 t[19,20] + 43.36 t[21,30]
   + 49.72 t[22,32] + 39.88 t[22,33] + 44.62 t[23,24] + 37.04 t[23,32]
   + 32.6 t[26,24] + 30.44 t[26,22] + 45.56 t[27,29] + 38.77 t[27,35]
   + 43.94 t[27,28] + 52.61 t[27,21] + 39.04 t[28,32] + 36.08 t[28,22]
   + 45.58 t[30,21] + 44.6 t[30,23] + 38.4 t[31,22] + 51.1 t[32,27]
   + 42.62 t[32,28] + 24.55 t[34,25] + 22.44 t[34,22] + 43.37 t[35,24]
   + 33.4 t[36,38] + 39.2 t[38,40] + 30.61 t[57,55] + 44.93 t[58,56]
   + 60.77 t[58,57] + 60.6 t[62,63] + 51.72 t[63,62] + 47.5 t[66,68]
   + 39.28 t[66,70] - 33.65 t[67,199] + 41.23 t[69,67] + 39.79 t[70,67]
   + 30.46 t[71,69] + 5.05 t[72,199] + 83.8 t[76,75] + 53.14 t[98,137]
   + 23.92 t[98,142] + 78.06 t[99,142] + 108.64 t[102,129]
   + 83.08 t[102,101] + 57.2 t[104,145] + 68.77 t[104,146]
   + 86.08 t[104,141] + 100.24 t[105,102] + 121.13 t[106,136]
   + 107.97 t[106,145] + 108.08 t[106,141] + 82.4 t[107,121]
   + 77.69 t[107,134] + 121.24 t[108,135] + 148.4 t[109,122]
   + 28.28 t[110,139] + 61.16 t[110,116] + 46.49 t[110,94]
   + 102.6 t[111,126] + 103.69 t[114,147] + 70.25 t[116,110]
   + 98.95 t[117,126] + 91.83 t[117,111] + 95.2 t[119,112]
   + 57.72 t[121,106] + 77.9 t[121,99] + 84.5 t[121,103] + 46.45 t[125,94]
   + 78.4 t[129,131] + 97 t[129,102] + 103.94 t[132,124]
   + 152.97 t[133,123] + 52.61 t[134,145] + 136.25 t[135,122]
   + 90.12 t[136,104] + 99.72 t[136,141] + 60.36 t[136,103]
   + 55.14 t[137,121] + 93.58 t[137,106] + 98.96 t[139,125]
   + 101.95 t[139,110] + 110.75 t[139,95] + 92.79 t[141,136]
   + 72.84 t[142,104] + 126 t[144,129] + 131.6 t[144,101]
   + 86.69 t[145,136] + 93.71 t[145,134] + 81.86 t[146,134]
   + 66.04 t[148,151] + 89.97 t[149,168] + 75.9 t[149,162]
   + 122.45 t[151,162] + 112.56 t[151,150] + 139.7 t[152,169]
   + 59.5 t[157,162] + 93.2 t[157,163] + 52 t[157,148] + 97.26 t[157,167]
   + 116.6 t[158,163] + 107 t[161,172] + 43.26 t[162,158] + 80.6 t[163,167]
   + 67.1 t[164,162] + 48.2 t[164,149] + 60.32 t[165,177]
   + 114.2 t[168,149] + 129.56 t[168,157] + 117.54 t[168,167]
   + 82.98 t[174,168] + 57 t[174,175] + 87.49 t[176,174] + 51.4 t[176,150]
   + 58.1 t[176,151] + 79.6 t[179,197] + 108.26 t[180,198]
   + 108.5 t[181,196] + 35.68 t[182,198] + 69.26 t[185,184]
   + 107.6 t[189,197] + 98.97 t[196,190] + 67.52 t[197,189]
   + 98.56 t[197,198] + 90.48 t[198,203] + 95.6 t[198,197]
   + 131.48 t[199,66] + 144 t[199,70] + 81.2 t[203,190] + 132.46 t[211,210]
   + 144.88 t[212,210] + 120.72 t[223,222] + 149.7 t[233,240]
   + 145.35 t[233,246] + 70.02 t[237,236] + 133.9 t[239,232]
   + 102.16 t[244,243] + 140.8 t[248,249] + 103.2 t[249,250]
   + 105.17 t[250,247]
Subject To
 cap_0: t[0,1] + t[0,4] + t[0,7] - 0.25 t[10,0] + t[98,137] + t[98,142]
   + t[99,142] + t[102,129] + 0.69 t[102,101] - 0.24 t[105,102]
   - 0.49 t[110,94] - 0.38 t[121,99] - 0.45 t[125,94] - 0.25 t[129,102]
   - 0.25 t[139,95] - 0.2 t[144,101] >= 608
 cap_1: - 0.31 t[0,1] + t[1,10] - 0.25 t[14,1] + t[104,145] + t[104,146]
   + t[104,141] + t[105,102] - 0.25 t[121,103] - 0.24 t[136,104]
   - 0.48 t[136,103] - 0.43 t[142,104] >= 19
 cap_2: t[2,11] + t[2,9] + t[2,3] - 0.27 t[6,2] + t[106,136] + t[106,145]
   + t[106,141] + t[107,121] + t[107,134] + t[108,135] - 0.42 t[121,106]
   - 0.13 t[137,106] >= 61
 cap_3: - 0.45 t[2,3] + t[3,6] + t[3,7] + t[3,9] + t[3,10] + t[3,12]
   - 0.46 t[4,3] + t[109,122] >= 38
 cap_4: - 0.34 t[0,4] + t[4,11] + t[4,3] + t[4,7] - 0.23 t[12,4]
   - 0.1 t[13,4] + t[110,139] + t[110,116] + t[110,94] + t[111,126]
   + t[114,147] - 0.25 t[116,110] - 0.33 t[117,111] - 0.2 t[119,112]
   - 0.39 t[139,110] >= 407
 cap_5: t[5,8] + t[5,13] + t[5,6] - 0.48 t[12,5] - 0.24 t[14,5]
   - 0.36 t[110,116] + t[116,110] + t[117,126] + t[117,111] + t[119,112]
   >= 729
 cap_6: - 0.47 t[3,6] - 0.28 t[5,6] + t[6,9] + t[6,2] + t[6,7]
   - 0.4 t[12,6] - 0.4 t[107,121] - 0.32 t[109,122] + t[121,106]
   + t[121,99] + t[121,103] - 0.35 t[135,122] - 0.49 t[137,121] >= 30
 cap_7: - 0.44 t[0,7] - 0.35 t[3,7] - 0.49 t[4,7] - 0.43 t[6,7] + t[7,9]
   - 0.22 t[132,124] - 0.31 t[133,123] >= 135
 cap_8: - 0.27 t[5,8] - 0.12 t[102,129] - 0.32 t[111,126] - 0.29 t[117,126]
   + t[125,94] + t[129,131] + t[129,102] - 0.44 t[139,125]
   - 0.25 t[144,129] >= 498
 cap_9: - 0.28 t[2,9] - 0.44 t[3,9] - 0.14 t[6,9] - 0.39 t[7,9]
   - 0.33 t[10,9] - 0.42 t[11,9] - 0.4 t[129,131] + t[132,124] >= 118
 cap_10: - 0.11 t[1,10] - 0.42 t[3,10] + t[10,0] + t[10,9] + t[10,13]
   + t[133,123] >= 32
 cap_11: - 0.31 t[2,11] - 0.11 t[4,11] + t[11,9] - 0.43 t[107,134]
   - 0.47 t[108,135] + t[134,145] + t[135,122] - 0.37 t[145,134]
   - 0.42 t[146,134] >= 48
 cap_12: - 0.45 t[3,12] + t[12,4] + t[12,5] + t[12,6] - 0.26 t[98,137]
   - 0.11 t[106,136] + t[136,104] + t[136,141] + t[136,103] + t[137,121]
   + t[137,106] - 0.13 t[141,136] - 0.43 t[145,136] >= 0
 cap_13: - 0.19 t[5,13] - 0.18 t[10,13] + t[13,4] - 0.48 t[98,142]
   - 0.14 t[99,142] - 0.24 t[104,141] - 0.24 t[106,141] - 0.48 t[110,139]
   - 0.16 t[136,141] + t[139,125] + t[139,110] + t[139,95] + t[141,136]
   + t[142,104] + t[144,129] + t[144,101] >= 389
 cap_14: t[14,1] + t[14,5] - 0.4 t[104,145] - 0.33 t[104,146]
   - 0.19 t[106,145] - 0.19 t[114,147] - 0.47 t[134,145] + t[145,136]
   + t[145,134] + t[146,134] >= 88
 cap_15: 0.56 t[148,151] + t[149,168] + t[149,162] + t[151,162]
   + 0.84 t[151,150] + t[152,169] - 0.48 t[157,148] - 0.49 t[164,149]
   - 0.24 t[168,149] - 0.4 t[176,150] - 0.35 t[176,151] >= 677
 cap_16: t[157,162] + t[157,163] + t[157,148] + t[157,167] + t[158,163]
   + t[161,172] - 0.49 t[162,158] - 0.12 t[168,157] >= 542
 cap_17: - 0.42 t[149,162] - 0.11 t[151,162] - 0.5 t[157,162]
   - 0.2 t[157,163] - 0.1 t[158,163] + t[162,158] + t[163,167]
   + 0.62 t[164,162] + t[164,149] + t[165,177] >= 42
 cap_18: >= -13
 cap_19: t[19,20] - 0.21 t[149,168] - 0.1 t[152,169] - 0.11 t[157,167]
   - 0.25 t[161,172] - 0.1 t[163,167] + t[168,149] + t[168,157]
   + 0.81 t[168,167] - 0.14 t[174,168] >= 463
 cap_20: - 0.36 t[19,20] - 0.46 t[165,177] + t[174,168] + 0.5 t[174,175]
   + 0.83 t[176,174] + t[176,150] + t[176,151] >= 253
 cap_21: t[21,30] - 0.21 t[27,21] - 0.38 t[30,21] + t[148,151]
   - 0.48 t[157,148] - 0.11 t[157,167] - 0.1 t[163,167] - 0.19 t[168,167]
   - 0.14 t[181,196] + t[189,197] + t[196,190] - 0.41 t[197,189]
   - 0.13 t[211,210] - 0.14 t[212,210] - 0.46 t[237,236] - 0.41 t[250,247]
   >= 327
 cap_22: t[22,32] + t[22,33] - 0.29 t[26,22] - 0.28 t[28,22] - 0.4 t[31,22]
   - 0.29 t[34,22] >= 21
 cap_23: t[23,24] + t[23,32] - 0.45 t[30,23] - 0.42 t[149,162]
   - 0.11 t[151,162] - 0.5 t[157,162] + t[162,158] - 0.38 t[164,162]
   + t[174,168] + t[174,175] - 0.17 t[176,174] >= 91
 cap_24: - 0.18 t[23,24] - 0.4 t[26,24] - 0.43 t[35,24] - 0.2 t[157,163]
   - 0.1 t[158,163] + t[163,167] - 0.5 t[174,175] - 0.22 t[223,222] >= 298
 cap_25: - 0.35 t[34,25] + t[157,162] + t[157,163] + t[157,148]
   + t[157,167] - 0.12 t[168,157] >= 120
 cap_26: t[26,24] + t[26,22] >= 0
 cap_27: t[27,29] + t[27,35] + t[27,28] + t[27,21] - 0.26 t[32,27]
   + t[179,197] + t[223,222] >= 150
 cap_28: - 0.39 t[27,28] + t[28,32] + t[28,22] - 0.47 t[32,28] + t[149,168]
   + t[149,162] - 0.49 t[164,149] - 0.24 t[168,149] - 0.37 t[179,197]
   - 0.17 t[189,197] + t[197,189] + t[197,198] - 0.32 t[198,197]
   + t[211,210] - 0.24 t[244,243] + t[248,249] >= 514
 cap_29: - 0.36 t[27,29] + t[164,162] + t[164,149] + t[176,174]
   + t[176,150] + t[176,151] >= 58
 cap_30: - 0.23 t[21,30] + t[30,21] + t[30,23] - 0.21 t[149,168]
   - 0.16 t[151,150] + t[168,149] + t[168,157] + t[168,167]
   - 0.14 t[174,168] - 0.4 t[176,150] - 0.19 t[196,190] - 0.4 t[203,190]
   + t[212,210] + t[237,236] - 0.1 t[248,249] + t[249,250] >= 488
 cap_31: t[31,22] + t[180,198] >= -35
 cap_32: - 0.21 t[22,32] - 0.22 t[23,32] - 0.22 t[28,32] + t[32,27]
   + t[32,28] - 0.44 t[148,151] + t[151,162] + t[151,150] - 0.35 t[176,151]
   - 0.11 t[180,198] - 0.48 t[182,198] - 0.16 t[197,198] + 0.68 t[198,203]
   + t[198,197] + t[203,190] + t[244,243] - 0.4 t[249,250] + t[250,247]
   >= 547
 cap_33: - 0.36 t[22,33] + t[181,196] >= -27
 cap_34: t[34,25] + t[34,22] + t[182,198] >= -11
 cap_35: - 0.43 t[27,35] + t[35,24] + t[158,163] - 0.49 t[162,158] >= 488
 cap_36: t[36,38] - 0.49 t[110,94] - 0.45 t[125,94] >= 171
 cap_37: - 0.48 t[110,139] + t[139,125] + t[139,110] + 0.75 t[139,95]
   >= 282
 cap_38: - 0.41 t[36,38] + t[38,40] - 0.46 t[185,184] >= 140
 cap_39: >= 133
 cap_40: - 0.32 t[38,40] + t[185,184] >= 99
 cap_41: t[110,139] + 0.64 t[110,116] + t[110,94] + 0.75 t[116,110]
   + t[125,94] - 0.44 t[139,125] - 0.39 t[139,110] >= 950
 cap_42: - 0.4 t[104,145] + 0.89 t[106,136] + 0.81 t[106,145] + t[106,141]
   - 0.42 t[121,106] - 0.25 t[121,103] - 0.47 t[134,145] + t[136,104]
   + t[136,141] + 0.52 t[136,103] - 0.13 t[137,106] - 0.13 t[141,136]
   + 0.57 t[145,136] + t[145,134] >= 188
 cap_43: >= -43
 cap_44: t[98,137] + t[98,142] - 0.24 t[104,141] - 0.24 t[106,141]
   - 0.16 t[136,141] + t[141,136] >= 29
 cap_45: - 0.26 t[98,137] + t[104,145] + 0.67 t[104,146] + t[104,141]
   + 0.6 t[107,121] + 0.57 t[107,134] + t[121,106] + t[121,99] + t[121,103]
   + t[134,145] - 0.24 t[136,104] + 0.51 t[137,121] + t[137,106]
   - 0.43 t[142,104] - 0.37 t[145,134] + 0.58 t[146,134] >= 385
 cap_46: - 0.48 t[98,142] + 0.86 t[99,142] - 0.38 t[121,99] + t[142,104]
   >= 43
 cap_47: >= 328
 cap_48: 0.53 t[108,135] + 0.68 t[109,122] + 0.69 t[133,123]
   + 0.65 t[135,122] >= 173
 cap_49: - 0.45 t[67,199] - 0.35 t[72,199] + t[117,126] + t[117,111]
   + t[152,169] + t[199,66] + t[199,70] >= 484
 cap_50: 0.68 t[111,126] - 0.29 t[117,126] - 0.33 t[117,111]
   - 0.1 t[152,169] + 0.9 t[239,232] >= 645
 cap_51: >= -2
 cap_52: - 0.2 t[119,112] + 0.85 t[233,240] + t[233,246] >= 299
 cap_53: t[119,112] - 0.19 t[233,246] >= 603
 cap_54: >= 574
 cap_55: - 0.29 t[57,55] - 0.31 t[102,101] + t[144,129] + 0.8 t[144,101]
   >= 122
 cap_56: - 0.47 t[58,56] - 0.12 t[102,129] + t[105,102] + 0.81 t[114,147]
   + t[129,131] + t[129,102] - 0.25 t[144,129] + 0.75 t[161,172] >= 884
 cap_57: t[57,55] - 0.39 t[58,57] - 0.4 t[129,131] + 0.54 t[165,177]
   >= 168
 cap_58: t[58,56] + t[58,57] + t[102,129] + t[102,101] - 0.24 t[105,102]
   - 0.25 t[129,102] >= 142
 cap_59: >= 459
 cap_60: 0.78 t[132,124] >= 512
 cap_61: t[179,197] + t[180,198] + t[181,196] + t[182,198]
   + 0.54 t[185,184] >= 414
 cap_62: t[62,63] - 0.12 t[63,62] + t[189,197] - 0.19 t[196,190]
   - 0.41 t[197,189] - 0.4 t[203,190] >= 471
 cap_63: - 0.14 t[62,63] + t[63,62] >= -40
 cap_64: - 0.45 t[67,199] - 0.35 t[72,199] - 0.37 t[179,197]
   - 0.11 t[180,198] - 0.14 t[181,196] - 0.48 t[182,198] - 0.17 t[189,197]
   + t[196,190] + t[197,189] + 0.84 t[197,198] + t[198,203]
   + 0.68 t[198,197] + t[199,66] + t[199,70] >= 215
 cap_65: - 0.32 t[198,203] + t[203,190] >= 62
 cap_66: t[66,68] + t[66,70] - 0.44 t[199,66] >= 0
 cap_67: t[67,199] - 0.21 t[69,67] - 0.33 t[70,67] >= -12
 cap_68: - 0.21 t[66,68] >= -23
 cap_69: t[69,67] - 0.46 t[71,69] >= -8
 cap_70: - 0.36 t[66,70] + t[70,67] - 0.25 t[199,70] >= -21
 cap_71: t[71,69] >= -20
 cap_72: t[72,199] >= -36
 cap_73: >= -14
 cap_74: >= 295
 cap_75: - 0.2 t[76,75] >= -46
 cap_76: t[76,75] + 0.87 t[211,210] + 0.86 t[212,210] >= 736
 cap_77: >= -44
 cap_78: >= 44
 cap_79: >= 43
 cap_80: >= -30
 cap_81: >= -11
 cap_82: >= 27
 cap_83: >= -43
 cap_84: >= 458
 cap_85: >= 183
 cap_86: 0.78 t[223,222] >= 711
 cap_87: >= -2
 cap_88: >= -32
 cap_89: t[233,240] + t[233,246] - 0.1 t[239,232] >= 474
 cap_90: - 0.15 t[233,240] + 0.54 t[237,236] + t[239,232] >= 753
 cap_91: - 0.19 t[233,246] + 0.76 t[244,243] >= 338
 cap_92: 0.9 t[248,249] + 0.6 t[249,250] + 0.59 t[250,247] >= 255
 cap_93: >= 398
 demand_0: t[0,1] + t[0,4] + t[0,7] <= 44
 demand_1: t[1,10] <= 38
 demand_2: t[2,11] + t[2,9] + t[2,3] <= 57
 demand_3: t[3,6] + t[3,7] + t[3,9] + t[3,10] + t[3,12] <= 52
 demand_4: t[4,11] + t[4,3] + t[4,7] <= 23
 demand_5: t[5,8] + t[5,13] + t[5,6] <= 48
 demand_6: t[6,9] + t[6,2] + t[6,7] <= 48
 demand_7: t[7,9] <= 29
 demand_8: <= 80
 demand_9: <= 11
 demand_10: t[10,0] + t[10,9] + t[10,13] <= 76
 demand_11: t[11,9] <= 36
 demand_12: t[12,4] + t[12,5] + t[12,6] <= 30
 demand_13: t[13,4] <= 24
 demand_14: t[14,1] + t[14,5] <= 32
 demand_15: <= 33
 demand_16: <= 29
 demand_17: <= 7
 demand_18: <= 32
 demand_19: t[19,20] <= 197
 demand_20: <= 2
 demand_21: t[21,30] <= 57
 demand_22: t[22,32] + t[22,33] <= 66
 demand_23: t[23,24] + t[23,32] <= 10
 demand_24: <= 28
 demand_25: <= 57
 demand_26: t[26,24] + t[26,22] <= 45
 demand_27: t[27,29] + t[27,35] + t[27,28] + t[27,21] <= 59
 demand_28: t[28,32] + t[28,22] <= 41
 demand_29: <= 68
 demand_30: t[30,21] + t[30,23] <= 68
 demand_31: t[31,22] <= 8
 demand_32: t[32,27] + t[32,28] <= 71
 demand_33: <= 31
 demand_34: t[34,25] + t[34,22] <= 15
 demand_35: t[35,24] <= 5
 demand_36: t[36,38] <= 17
 demand_37: <= 67
 demand_38: t[38,40] <= 63
 demand_39: <= 54
 demand_40: <= 60
 demand_41: <= 40
 demand_42: <= 58
 demand_43: <= 2
 demand_44: <= 22
 demand_45: <= 57
 demand_46: <= 53
 demand_47: <= 56
 demand_48: <= 69
 demand_49: <= 145
 demand_50: <= 2
 demand_51: <= 68
 demand_52: <= 27
 demand_53: <= 68
 demand_54: <= 68
 demand_55: <= 36
 demand_56: <= 43
 demand_57: t[57,55] <= 117
 demand_58: t[58,56] + t[58,57] <= 68
 demand_59: <= 52
 demand_60: <= 67
 demand_61: <= 61
 demand_62: t[62,63] <= 25
 demand_63: t[63,62] <= 5
 demand_64: <= 83
 demand_65: <= 17
 demand_66: t[66,68] + t[66,70] <= 45
 demand_67: t[67,199] <= 33
 demand_68: <= 22
 demand_69: t[69,67] <= 37
 demand_70: t[70,67] <= 24
 demand_71: t[71,69] <= 25
 demand_72: t[72,199] <= 9
 demand_73: <= 56
 demand_74: <= 69
 demand_75: <= 24
 demand_76: t[76,75] <= 123
 demand_77: <= 1
 demand_78: <= 89
 demand_79: <= 88
 demand_80: <= 15
 demand_81: <= 34
 demand_82: <= 72
 demand_83: <= 2
 demand_84: <= 68
 demand_85: <= 28
 demand_86: <= 67
 demand_87: <= 68
 demand_88: <= 38
 demand_89: <= 25
 demand_90: <= 71
 demand_91: <= 129
 demand_92: <= 52
 demand_93: <= 67
 demand_94: <= 199
 demand_95: <= 31
 demand_96: <= 26
 demand_97: <= 31
 demand_98: t[98,137] + t[98,142] <= 18
 demand_99: t[99,142] <= 24
 demand_100: <= 124
 demand_101: <= 65
 demand_102: t[102,129] + t[102,101] <= 91
 demand_103: <= 15
 demand_104: t[104,145] + t[104,146] + t[104,141] <= 10
 demand_105: t[105,102] <= 1
 demand_106: t[106,136] + t[106,145] + t[106,141] <= 13
 demand_107: t[107,121] + t[107,134] <= 3
 demand_108: t[108,135] <= 33
 demand_109: t[109,122] <= 31
 demand_110: t[110,139] + t[110,116] + t[110,94] <= 62
 demand_111: t[111,126] <= 108
 demand_112: <= 63
 demand_113: <= 64
 demand_114: t[114,147] <= 115
 demand_115: <= 17
 demand_116: t[116,110] <= 260
 demand_117: t[117,126] + t[117,111] <= 70
 demand_118: <= 55
 demand_119: t[119,112] <= 323
 demand_120: <= 18
 demand_121: t[121,106] + t[121,99] + t[121,103] <= 16
 demand_122: <= 11
 demand_123: <= 11
 demand_124: <= 140
 demand_125: t[125,94] <= 125
 demand_126: <= 32
 demand_127: <= 121
 demand_128: <= 67
 demand_129: t[129,131] + t[129,102] <= 43
 demand_130: <= 75
 demand_131: <= 10
 demand_132: t[132,124] <= 142
 demand_133: t[133,123] <= 26
 demand_134: t[134,145] <= 29
 demand_135: t[135,122] <= 53
 demand_136: t[136,104] + t[136,141] + t[136,103] <= 15
 demand_137: t[137,121] + t[137,106] <= 16
 demand_138: <= 9
 demand_139: t[139,125] + t[139,110] + t[139,95] <= 154
 demand_140: <= 92
 demand_141: t[141,136] <= 34
 demand_142: t[142,104] <= 11
 demand_143: <= 103
 demand_144: t[144,129] + t[144,101] <= 41
 demand_145: t[145,136] + t[145,134] <= 36
 demand_146: t[146,134] <= 36
 demand_147: <= 54
 demand_148: t[148,151] <= 5
 demand_149: t[149,168] + t[149,162] <= 129
 demand_150: <= 121
 demand_151: t[151,162] + t[151,150] <= 116
 demand_152: t[152,169] <= 82
 demand_153: <= 22
 demand_154: <= 98
 demand_155: <= 77
 demand_156: <= 39
 demand_157: t[157,162] + t[157,163] + t[157,148] + t[157,167] <= 108
 demand_158: t[158,163] <= 70
 demand_159: <= 10
 demand_160: <= 217
 demand_161: t[161,172] <= 153
 demand_162: t[162,158] <= 3
 demand_163: t[163,167] <= 21
 demand_164: t[164,162] + t[164,149] <= 32
 demand_165: t[165,177] <= 1
 demand_166: <= 23
 demand_167: <= 43
 demand_168: t[168,149] + t[168,157] + t[168,167] <= 73
 demand_169: <= 88
 demand_170: <= 25
 demand_171: <= 0
 demand_172: <= 78
 demand_173: <= 4
 demand_174: t[174,168] + t[174,175] <= 123
 demand_175: <= 128
 demand_176: t[176,174] + t[176,150] + t[176,151] <= 3
 demand_177: <= 14
 demand_178: <= 53
 demand_179: t[179,197] <= 20
 demand_180: t[180,198] <= 27
 demand_181: t[181,196] <= 12
 demand_182: t[182,198] <= 44
 demand_183: <= 75
 demand_184: <= 4
 demand_185: t[185,184] <= 53
 demand_186: <= 60
 demand_187: <= 50
 demand_188: <= 53
 demand_189: t[189,197] <= 23
 demand_190: <= 50
 demand_191: <= 94
 demand_192: <= 26
 demand_193: <= 27
 demand_194: <= 221
 demand_195: <= 50
 demand_196: t[196,190] <= 4
 demand_197: t[197,189] + t[197,198] <= 44
 demand_198: t[198,203] + t[198,197] <= 14
 demand_199: t[199,66] + t[199,70] <= 13
 demand_200: <= 49
 demand_201: <= 37
 demand_202: <= 16
 demand_203: t[203,190] <= 42
 demand_204: <= 43
 demand_205: <= 5
 demand_206: <= 94
 demand_207: <= 83
 demand_208: <= 75
 demand_209: <= 44
 demand_210: <= 82
 demand_211: t[211,210] <= 99
 demand_212: t[212,210] <= 84
 demand_213: <= 193
 demand_214: <= 77
 demand_215: <= 58
 demand_216: <= 90
 demand_217: <= 200
 demand_218: <= 73
 demand_219: <= 27
 demand_220: <= 160
 demand_221: <= 225
 demand_222: <= 166
 demand_223: t[223,222] <= 116
 demand_224: <= 124
 demand_225: <= 55
 demand_226: <= 96
 demand_227: <= 157
 demand_228: <= 65
 demand_229: <= 56
 demand_230: <= 91
 demand_231: <= 52
 demand_232: <= 189
 demand_233: t[233,240] + t[233,246] <= 17
 demand_234: <= 3
 demand_235: <= 46
 demand_236: <= 64
 demand_237: t[237,236] <= 21
 demand_238: <= 194
 demand_239: t[239,232] <= 118
 demand_240: <= 13
 demand_241: <= 186
 demand_242: <= 156
 demand_243: <= 85
 demand_244: t[244,243] <= 40
 demand_245: <= 89
 demand_246: <= 65
 demand_247: <= 29
 demand_248: t[248,249] <= 11
 demand_249: t[249,250] <= 25
 demand_250: t[250,247] <= 26
 demand_251: <= 37
 demand_252: <= 52
 demand_253: <= 33
 demand_254: <= 60
 demand_255: <= 283
 demand_256: <= 13
 demand_257: <= 19
 demand_258: <= 86
Bounds
End
